chronos/benchmarks/dct/dct.out
sim-profile: SimpleScalar/PISA Tool Set version 3.0 of August, 2003.
Copyright (c) 1994-2003 by Todd M. Austin, Ph.D. and SimpleScalar, LLC.
All Rights Reserved. This version of SimpleScalar is licensed for academic
non-commercial use.  No portion of this work may be used by any commercial
entity, or for any commercial purpose, without the prior written permission
of SimpleScalar, LLC (info@simplescalar.com).

sim: command line: /ubc/ece/home/courses/eece494/chronos/simplesim-3.0/sim-profile -pcstat sim_num_insn dct 

sim: simulation started @ Wed Jan 26 14:33:21 2011, options follow:

sim-profile: This simulator implements a functional simulator with
profiling support.  Run with the `-h' flag to see profiling options
available.

# -config                     # load configuration from a file
# -dumpconfig                 # dump configuration to a file
# -h                    false # print help message    
# -v                    false # verbose operation     
# -d                    false # enable debug message  
# -i                    false # start in Dlite debugger
-seed                       1 # random number generator seed (0 for timer seed)
# -q                    false # initialize and terminate immediately
# -chkpt               <null> # restore EIO trace execution from <fname>
# -redir:sim           <null> # redirect simulator output to file (non-interactive only)
# -redir:prog          <null> # redirect simulated program output to file
-nice                       0 # simulator scheduling priority
-max:inst                   0 # maximum number of inst's to execute
-all                    false # enable all profile options
-iclass                 false # enable instruction class profiling
-iprof                  false # enable instruction profiling
-brprof                 false # enable branch instruction profiling
-amprof                 false # enable address mode profiling
-segprof                false # enable load/store address segment profiling
-tsymprof               false # enable text symbol profiling
-taddrprof              false # enable text address profiling
-dsymprof               false # enable data symbol profiling
-internal               false # include compiler-internal symbols during symbol profiling
# -pcstat        sim_num_insn # profile stat(s) against text addr's (mult uses ok)

sim: ** starting functional simulation **

sim: ** simulation statistics **
sim_num_insn                  91112 # total number of instructions executed
sim_num_refs                  16681 # total number of loads and stores executed
sim_elapsed_time                  1 # total simulation time in seconds
sim_inst_rate            91112.0000 # simulation speed (in insts/sec)

sim_num_insn_by_pc     # total number of instructions executed (by text address)
sim_num_insn_by_pc.count = 894
sim_num_insn_by_pc.total = 91111
sim_num_insn_by_pc.imin = 0x400140
sim_num_insn_by_pc.imax = 0x405810
sim_num_insn_by_pc.average = 101.9139
sim_num_insn_by_pc.std_dev = 499.9352
sim_num_insn_by_pc.overflows = 0
# pdf == prob dist fn, cdf == cumulative dist fn
#          index      count    pdf 
sim_num_insn_by_pc.start_dist
0x400140 1 0.00
0x400148 1 0.00
0x400150 1 0.00
0x400158 1 0.00
0x400160 1 0.00
0x400168 1 0.00
0x400170 1 0.00
0x400178 1 0.00
0x400180 1 0.00
0x400188 1 0.00
0x400190 1 0.00
0x400198 1 0.00
0x4001a0 1 0.00
0x4001a8 1 0.00
0x4001b0 1 0.00
0x4001b8 1 0.00
0x4001c0 1 0.00
0x4001c8 1 0.00
0x4001d0 1 0.00
0x4001d8 1 0.00
0x4001e0 1 0.00
0x4001f0 1 0.00
0x4001f8 1 0.00
0x400200 1 0.00
0x400208 1 0.00
0x400210 1 0.00
0x400218 6 0.01
0x400220 48 0.05
0x400228 48 0.05
0x400230 48 0.05
0x400238 384 0.42
0x400240 384 0.42
0x400248 384 0.42
0x400250 384 0.42
0x400258 3072 3.37
0x400260 3072 3.37
0x400268 3072 3.37
0x400270 3072 3.37
0x400278 3072 3.37
0x400280 3072 3.37
0x400288 3072 3.37
0x400290 3072 3.37
0x400298 3072 3.37
0x4002a0 3072 3.37
0x4002a8 3072 3.37
0x4002b0 3072 3.37
0x4002b8 3072 3.37
0x4002c0 384 0.42
0x4002c8 384 0.42
0x4002d0 384 0.42
0x4002d8 384 0.42
0x4002e0 384 0.42
0x4002e8 384 0.42
0x4002f0 384 0.42
0x4002f8 384 0.42
0x400300 48 0.05
0x400308 48 0.05
0x400310 48 0.05
0x400318 6 0.01
0x400320 48 0.05
0x400328 48 0.05
0x400330 48 0.05
0x400338 384 0.42
0x400340 384 0.42
0x400348 384 0.42
0x400350 384 0.42
0x400358 384 0.42
0x400360 3072 3.37
0x400368 3072 3.37
0x400370 3072 3.37
0x400378 3072 3.37
0x400380 3072 3.37
0x400388 3072 3.37
0x400390 3072 3.37
0x400398 3072 3.37
0x4003a0 3072 3.37
0x4003a8 3072 3.37
0x4003b0 3072 3.37
0x4003b8 384 0.42
0x4003c0 384 0.42
0x4003c8 384 0.42
0x4003d0 384 0.42
0x4003d8 384 0.42
0x4003e0 384 0.42
0x4003e8 384 0.42
0x4003f0 384 0.42
0x4003f8 384 0.42
0x400400 384 0.42
0x400408 384 0.42
0x400410 48 0.05
0x400418 48 0.05
0x400420 48 0.05
0x400428 6 0.01
0x400430 6 0.01
0x400438 6 0.01
0x400440 1 0.00
0x400448 1 0.00
0x400450 1 0.00
0x400458 1 0.00
0x400460 1 0.00
0x400468 1 0.00
0x400470 1 0.00
0x400478 1 0.00
0x400480 1 0.00
0x400488 1 0.00
0x400490 1 0.00
0x400498 1 0.00
0x4004a0 1 0.00
0x4004a8 1 0.00
0x4004b0 1 0.00
0x4004b8 1 0.00
0x4004c0 1 0.00
0x4004c8 1 0.00
0x4004d0 1 0.00
0x4004d8 1 0.00
0x4004e0 1 0.00
0x4004e8 1 0.00
0x4004f0 1 0.00
0x4004f8 1 0.00
0x400500 1 0.00
0x4005b0 1 0.00
0x4005b8 1 0.00
0x4005c0 1 0.00
0x4005c8 1 0.00
0x4005d0 1 0.00
0x400620 1 0.00
0x400628 1 0.00
0x400630 1 0.00
0x400638 1 0.00
0x400640 1 0.00
0x400648 1 0.00
0x400650 1 0.00
0x400658 1 0.00
0x400660 1 0.00
0x400668 1 0.00
0x400670 1 0.00
0x400678 1 0.00
0x400688 1 0.00
0x400690 1 0.00
0x400698 1 0.00
0x4006a0 1 0.00
0x4006a8 1 0.00
0x4008c0 1 0.00
0x4008c8 1 0.00
0x4008d0 1 0.00
0x4008d8 1 0.00
0x4008e0 1 0.00
0x4008e8 1 0.00
0x4008f0 1 0.00
0x400910 1 0.00
0x400930 1 0.00
0x400938 1 0.00
0x400940 1 0.00
0x400948 1 0.00
0x400950 1 0.00
0x400958 1 0.00
0x400978 1 0.00
0x400980 1 0.00
0x400988 1 0.00
0x400990 1 0.00
0x4009b0 1 0.00
0x4009b8 1 0.00
0x4009c0 1 0.00
0x4009c8 1 0.00
0x4009d0 1 0.00
0x4009d8 1 0.00
0x4009e0 1 0.00
0x4009e8 1 0.00
0x4009f0 1 0.00
0x4009f8 1 0.00
0x400a00 1 0.00
0x400a08 1 0.00
0x400a10 1 0.00
0x400a18 1 0.00
0x400a20 1 0.00
0x400a28 1 0.00
0x400a30 1 0.00
0x400a38 1 0.00
0x400a40 1 0.00
0x400a48 1 0.00
0x400a50 1 0.00
0x400a58 1 0.00
0x400a60 1 0.00
0x400a68 1 0.00
0x400a78 1 0.00
0x400a80 1 0.00
0x400a88 1 0.00
0x400a90 1 0.00
0x400a98 1 0.00
0x400aa0 1 0.00
0x400aa8 1 0.00
0x400ab0 1 0.00
0x400ab8 1 0.00
0x400ac0 1 0.00
0x400ac8 1 0.00
0x400ad0 1 0.00
0x400ad8 1 0.00
0x400ae0 1 0.00
0x400ae8 1 0.00
0x400af0 1 0.00
0x400af8 1 0.00
0x400b00 1 0.00
0x400b08 1 0.00
0x400b10 1 0.00
0x400b18 1 0.00
0x400b20 1 0.00
0x400b28 1 0.00
0x400b30 1 0.00
0x400b38 1 0.00
0x400b48 1 0.00
0x400b50 1 0.00
0x400b58 1 0.00
0x400b60 1 0.00
0x400b68 1 0.00
0x400b70 1 0.00
0x400b78 1 0.00
0x400b80 1 0.00
0x400b88 1 0.00
0x400b90 1 0.00
0x400b98 1 0.00
0x400ba0 1 0.00
0x400ba8 1 0.00
0x400bb0 1 0.00
0x400bb8 1 0.00
0x400bc0 1 0.00
0x400bc8 1 0.00
0x400bf8 1 0.00
0x400c00 1 0.00
0x400c10 1 0.00
0x400c18 1 0.00
0x400c30 1 0.00
0x400c38 1 0.00
0x400c40 1 0.00
0x400c48 1 0.00
0x400c58 1 0.00
0x400c60 1 0.00
0x400c68 1 0.00
0x400c70 1 0.00
0x400c78 1 0.00
0x400f00 1 0.00
0x400f08 1 0.00
0x400f10 1 0.00
0x400f18 1 0.00
0x400f28 1 0.00
0x400f30 1 0.00
0x400f38 1 0.00
0x400f40 1 0.00
0x400f48 1 0.00
0x400f50 1 0.00
0x400f58 1 0.00
0x400f60 1 0.00
0x400f68 1 0.00
0x400f70 1 0.00
0x400f78 1 0.00
0x400f80 1 0.00
0x400f88 1 0.00
0x400f90 1 0.00
0x400f98 1 0.00
0x400fa0 1 0.00
0x400fa8 1 0.00
0x400fb0 1 0.00
0x400fb8 1 0.00
0x400fc0 1 0.00
0x400fc8 1 0.00
0x400fd0 1 0.00
0x400fe8 1 0.00
0x400ff0 1 0.00
0x400ff8 1 0.00
0x401000 1 0.00
0x401008 1 0.00
0x401010 1 0.00
0x401020 1 0.00
0x401028 1 0.00
0x4013c0 1 0.00
0x4013c8 1 0.00
0x4013d0 1 0.00
0x4013d8 1 0.00
0x4013e0 1 0.00
0x4013e8 1 0.00
0x4013f0 1 0.00
0x4013f8 1 0.00
0x401400 1 0.00
0x401408 1 0.00
0x401410 1 0.00
0x401418 1 0.00
0x401420 1 0.00
0x401428 1 0.00
0x401430 1 0.00
0x401438 1 0.00
0x401440 1 0.00
0x401448 1 0.00
0x401450 1 0.00
0x401458 1 0.00
0x401460 1 0.00
0x401468 1 0.00
0x401470 1 0.00
0x401478 1 0.00
0x401480 1 0.00
0x401488 1 0.00
0x401570 1 0.00
0x401578 1 0.00
0x401580 1 0.00
0x401588 1 0.00
0x401590 1 0.00
0x401598 1 0.00
0x4015a0 1 0.00
0x4015b0 1 0.00
0x4015b8 1 0.00
0x4015c0 1 0.00
0x4015c8 1 0.00
0x4015d0 1 0.00
0x4015d8 1 0.00
0x4015e0 1 0.00
0x4015e8 1 0.00
0x4015f0 1 0.00
0x4015f8 1 0.00
0x401600 1 0.00
0x401608 1 0.00
0x401610 1 0.00
0x401618 1 0.00
0x401620 1 0.00
0x401628 1 0.00
0x401630 1 0.00
0x4018c8 1 0.00
0x4018d0 1 0.00
0x4018d8 1 0.00
0x4018e0 1 0.00
0x4018e8 1 0.00
0x4018f0 1 0.00
0x4018f8 1 0.00
0x401900 1 0.00
0x401910 4 0.00
0x401918 4 0.00
0x401920 4 0.00
0x401928 4 0.00
0x401930 4 0.00
0x401938 4 0.00
0x401940 4 0.00
0x401948 1 0.00
0x401950 1 0.00
0x401958 1 0.00
0x401960 1 0.00
0x401968 1 0.00
0x401970 1 0.00
0x401978 3 0.00
0x401980 3 0.00
0x401998 3 0.00
0x4019a0 3 0.00
0x4019a8 3 0.00
0x4019b0 3 0.00
0x4019b8 3 0.00
0x4019c0 3 0.00
0x4019c8 1 0.00
0x4019d0 1 0.00
0x4019d8 3 0.00
0x4019e0 3 0.00
0x4019e8 3 0.00
0x4019f0 3 0.00
0x401a08 3 0.00
0x401a10 3 0.00
0x401a18 3 0.00
0x401a20 3 0.00
0x401a48 3 0.00
0x401a50 3 0.00
0x401a58 3 0.00
0x401a60 2 0.00
0x401a68 2 0.00
0x401a70 2 0.00
0x401a78 2 0.00
0x401a80 2 0.00
0x401a98 3 0.00
0x401aa0 3 0.00
0x401aa8 1 0.00
0x401ab0 1 0.00
0x401ab8 1 0.00
0x401ac0 1 0.00
0x401ac8 3 0.00
0x401ad0 3 0.00
0x401ad8 2 0.00
0x401ae0 2 0.00
0x401ae8 2 0.00
0x401af0 2 0.00
0x401af8 1 0.00
0x401b00 1 0.00
0x401b08 1 0.00
0x401b10 1 0.00
0x401b18 1 0.00
0x401b38 1 0.00
0x401b40 3 0.00
0x401b48 3 0.00
0x401b50 3 0.00
0x401b58 4 0.00
0x401b60 4 0.00
0x401b68 4 0.00
0x401b70 4 0.00
0x401b78 4 0.00
0x401b80 4 0.00
0x401b90 1 0.00
0x401b98 1 0.00
0x401ba0 1 0.00
0x401ba8 1 0.00
0x401bb0 1 0.00
0x401bb8 1 0.00
0x401bc0 1 0.00
0x401bc8 1 0.00
0x401c00 1 0.00
0x401c08 1 0.00
0x401c10 1 0.00
0x401c18 1 0.00
0x401c20 1 0.00
0x401c28 1 0.00
0x401c30 1 0.00
0x401c38 1 0.00
0x401c40 1 0.00
0x401c48 1 0.00
0x401c50 1 0.00
0x401c58 1 0.00
0x401c60 1 0.00
0x401c68 1 0.00
0x401ca0 1 0.00
0x401ca8 1 0.00
0x401cb0 1 0.00
0x401cb8 1 0.00
0x401cc0 1 0.00
0x401cc8 1 0.00
0x401cd0 1 0.00
0x401cd8 1 0.00
0x401ce0 1 0.00
0x401ce8 1 0.00
0x401cf0 1 0.00
0x401cf8 1 0.00
0x401d00 1 0.00
0x401d08 1 0.00
0x401d10 1 0.00
0x401d18 1 0.00
0x401d20 1 0.00
0x401d38 1 0.00
0x401d40 1 0.00
0x401d48 1 0.00
0x401d50 5 0.01
0x401d58 5 0.01
0x401d60 5 0.01
0x401d68 5 0.01
0x401d70 5 0.01
0x401d78 5 0.01
0x401d80 5 0.01
0x401d88 5 0.01
0x401d90 5 0.01
0x401d98 5 0.01
0x401da0 4 0.00
0x401da8 4 0.00
0x401db0 4 0.00
0x401db8 4 0.00
0x401dc0 4 0.00
0x401dc8 4 0.00
0x401dd0 4 0.00
0x401dd8 4 0.00
0x401de0 4 0.00
0x401de8 4 0.00
0x401e18 4 0.00
0x401e20 4 0.00
0x401e28 4 0.00
0x401e30 390 0.43
0x401e38 390 0.43
0x401e40 390 0.43
0x401e48 390 0.43
0x401e50 390 0.43
0x401e58 390 0.43
0x401e60 390 0.43
0x401e68 390 0.43
0x401e70 390 0.43
0x401e78 390 0.43
0x401e80 390 0.43
0x401e88 390 0.43
0x401e90 4 0.00
0x401e98 4 0.00
0x401ea0 4 0.00
0x401ea8 12 0.01
0x401eb0 12 0.01
0x401eb8 12 0.01
0x401ec0 12 0.01
0x401ec8 4 0.00
0x401ed0 4 0.00
0x401ef8 4 0.00
0x401f00 4 0.00
0x4020d0 1 0.00
0x4020d8 1 0.00
0x4020e0 1 0.00
0x4020e8 1 0.00
0x4020f0 1 0.00
0x4020f8 1 0.00
0x402100 1 0.00
0x402108 1 0.00
0x402110 1 0.00
0x402118 1 0.00
0x402128 1 0.00
0x402130 1 0.00
0x402138 1 0.00
0x402140 1 0.00
0x402148 1 0.00
0x402150 1 0.00
0x402158 1 0.00
0x402160 1 0.00
0x402168 1 0.00
0x402170 1 0.00
0x402178 1 0.00
0x402180 1 0.00
0x402188 1 0.00
0x402190 1 0.00
0x402198 1 0.00
0x4021a0 1 0.00
0x4021a8 1 0.00
0x4021b0 1 0.00
0x4021b8 1 0.00
0x4021c0 1 0.00
0x4021c8 1 0.00
0x4021d0 1 0.00
0x4021d8 1 0.00
0x4021e0 1 0.00
0x4021e8 1 0.00
0x402238 1 0.00
0x402240 1 0.00
0x402248 1 0.00
0x402250 1 0.00
0x402258 1 0.00
0x402260 1 0.00
0x402268 1 0.00
0x402280 1 0.00
0x402288 1 0.00
0x402290 1 0.00
0x402298 1 0.00
0x4022a0 1 0.00
0x4022a8 1 0.00
0x4022b0 1 0.00
0x4022b8 1 0.00
0x4022c0 1 0.00
0x4022c8 1 0.00
0x4022d0 1 0.00
0x4022d8 1 0.00
0x4022e0 1 0.00
0x402330 1 0.00
0x402338 1 0.00
0x402340 1 0.00
0x402348 1 0.00
0x402350 1 0.00
0x402358 1 0.00
0x402360 1 0.00
0x402368 1 0.00
0x402370 1 0.00
0x402378 1 0.00
0x402380 1 0.00
0x402388 1 0.00
0x402390 1 0.00
0x402398 1 0.00
0x4023a0 1 0.00
0x4023a8 1 0.00
0x4023b0 1 0.00
0x4023b8 1 0.00
0x4023c0 1 0.00
0x4023c8 1 0.00
0x4023d0 1 0.00
0x4023d8 1 0.00
0x4023e0 1 0.00
0x4023e8 1 0.00
0x4023f0 1 0.00
0x4023f8 1 0.00
0x402400 1 0.00
0x402408 1 0.00
0x4024c0 1 0.00
0x4024c8 1 0.00
0x4024d0 1 0.00
0x4024d8 1 0.00
0x4024e0 1 0.00
0x4024e8 1 0.00
0x4024f0 1 0.00
0x4024f8 1 0.00
0x402500 1 0.00
0x402508 1 0.00
0x402510 1 0.00
0x402518 1 0.00
0x402520 1 0.00
0x402528 1 0.00
0x402530 1 0.00
0x402538 1 0.00
0x402540 1 0.00
0x402548 1 0.00
0x402550 1 0.00
0x402558 1 0.00
0x402560 1 0.00
0x402568 1 0.00
0x402570 1 0.00
0x402578 1 0.00
0x402580 1 0.00
0x402588 1 0.00
0x402590 1 0.00
0x402598 1 0.00
0x4025a0 1 0.00
0x4025a8 1 0.00
0x4025b0 1 0.00
0x4025b8 1 0.00
0x4025c0 1 0.00
0x4025c8 1 0.00
0x4025d0 1 0.00
0x4025d8 1 0.00
0x4025e0 1 0.00
0x4025e8 1 0.00
0x4025f0 1 0.00
0x4025f8 1 0.00
0x402600 1 0.00
0x402608 1 0.00
0x402610 1 0.00
0x402618 1 0.00
0x402620 1 0.00
0x402628 1 0.00
0x402630 1 0.00
0x402638 1 0.00
0x402948 1 0.00
0x402950 1 0.00
0x402958 1 0.00
0x402960 1 0.00
0x402968 1 0.00
0x402970 1 0.00
0x402978 1 0.00
0x402980 1 0.00
0x402988 1 0.00
0x402990 1 0.00
0x402998 1 0.00
0x4029a0 1 0.00
0x4029c8 1 0.00
0x4029d0 1 0.00
0x402a00 1 0.00
0x402a08 1 0.00
0x402a10 1 0.00
0x402a18 1 0.00
0x402e48 2 0.00
0x402e50 2 0.00
0x402e58 2 0.00
0x402e60 2 0.00
0x402e68 2 0.00
0x402e70 2 0.00
0x402e78 2 0.00
0x402e80 2 0.00
0x402e88 2 0.00
0x402e90 2 0.00
0x402e98 2 0.00
0x402ea0 2 0.00
0x402ea8 2 0.00
0x402eb0 2 0.00
0x402eb8 2 0.00
0x402ec0 2 0.00
0x402ec8 2 0.00
0x402ed0 2 0.00
0x402ed8 2 0.00
0x402ee0 2 0.00
0x402ee8 2 0.00
0x402ef0 2 0.00
0x402ef8 2 0.00
0x402f00 2 0.00
0x402f08 2 0.00
0x402f10 2 0.00
0x402f18 2 0.00
0x402f20 2 0.00
0x4030d8 2 0.00
0x4030e0 2 0.00
0x4030e8 1 0.00
0x4030f0 1 0.00
0x4030f8 1 0.00
0x403100 1 0.00
0x403108 1 0.00
0x403110 1 0.00
0x403118 1 0.00
0x403180 2 0.00
0x403188 2 0.00
0x403190 2 0.00
0x403198 2 0.00
0x4031d0 2 0.00
0x4031d8 2 0.00
0x4031e0 2 0.00
0x4031e8 2 0.00
0x4031f0 2 0.00
0x4031f8 2 0.00
0x403200 2 0.00
0x403208 2 0.00
0x403210 2 0.00
0x403218 2 0.00
0x403220 2 0.00
0x403520 2 0.00
0x403528 2 0.00
0x403530 2 0.00
0x403538 2 0.00
0x403540 2 0.00
0x403548 2 0.00
0x403550 2 0.00
0x403558 2 0.00
0x403560 2 0.00
0x403578 2 0.00
0x403580 2 0.00
0x403588 2 0.00
0x403590 2 0.00
0x403598 2 0.00
0x4035a0 2 0.00
0x4035a8 2 0.00
0x4035b0 2 0.00
0x4035b8 2 0.00
0x4035c0 2 0.00
0x4035c8 2 0.00
0x403a60 2 0.00
0x403a68 2 0.00
0x403a70 2 0.00
0x403a78 2 0.00
0x403a80 2 0.00
0x403a88 2 0.00
0x403a90 2 0.00
0x403a98 2 0.00
0x403aa0 2 0.00
0x403aa8 2 0.00
0x403ab0 2 0.00
0x403ab8 2 0.00
0x403ac0 2 0.00
0x403ac8 2 0.00
0x403ad0 2 0.00
0x403ae8 2 0.00
0x403af0 2 0.00
0x403af8 2 0.00
0x403b00 2 0.00
0x403b08 2 0.00
0x403b10 2 0.00
0x403b18 2 0.00
0x403b40 2 0.00
0x403b48 2 0.00
0x403b50 2 0.00
0x403b58 2 0.00
0x403b60 2 0.00
0x403b98 2 0.00
0x403ba0 2 0.00
0x403ba8 2 0.00
0x403bb0 2 0.00
0x403bb8 2 0.00
0x403bc0 2 0.00
0x403bc8 2 0.00
0x403bd0 2 0.00
0x403bd8 2 0.00
0x403be0 2 0.00
0x403be8 2 0.00
0x403bf0 2 0.00
0x403bf8 2 0.00
0x403c00 2 0.00
0x403c08 2 0.00
0x403c10 2 0.00
0x403c18 2 0.00
0x403c20 2 0.00
0x403c28 2 0.00
0x403c30 2 0.00
0x403c38 2 0.00
0x403c40 2 0.00
0x403c48 2 0.00
0x403c50 2 0.00
0x403c58 2 0.00
0x403c60 2 0.00
0x403c68 2 0.00
0x403c70 2 0.00
0x403c78 2 0.00
0x403c80 2 0.00
0x403c88 1 0.00
0x403c90 1 0.00
0x403ca8 1 0.00
0x403cb0 1 0.00
0x403cb8 1 0.00
0x403cc0 1 0.00
0x403cc8 1 0.00
0x403cd0 1 0.00
0x403cd8 1 0.00
0x403d10 1 0.00
0x403d18 1 0.00
0x403d20 1 0.00
0x403d48 2 0.00
0x403d50 2 0.00
0x403d58 2 0.00
0x403d60 2 0.00
0x403d68 2 0.00
0x403d70 2 0.00
0x403d78 2 0.00
0x403d80 2 0.00
0x403d88 2 0.00
0x403db8 2 0.00
0x403e80 2 0.00
0x403e88 2 0.00
0x403e90 2 0.00
0x403eb8 2 0.00
0x403ec0 2 0.00
0x403ed0 2 0.00
0x403ed8 2 0.00
0x403ee0 2 0.00
0x403ee8 2 0.00
0x403ef0 2 0.00
0x403ef8 2 0.00
0x403f28 2 0.00
0x403f30 2 0.00
0x403f38 2 0.00
0x403f40 2 0.00
0x403f58 2 0.00
0x403f60 2 0.00
0x403f68 2 0.00
0x403f70 2 0.00
0x403f78 2 0.00
0x403f80 2 0.00
0x403f88 2 0.00
0x403f90 2 0.00
0x404528 3 0.00
0x404530 3 0.00
0x404538 3 0.00
0x404540 3 0.00
0x404548 3 0.00
0x404550 3 0.00
0x404558 3 0.00
0x404560 3 0.00
0x404568 3 0.00
0x404570 3 0.00
0x404578 3 0.00
0x404580 3 0.00
0x404588 3 0.00
0x404590 3 0.00
0x404598 3 0.00
0x404740 2 0.00
0x404748 2 0.00
0x404750 2 0.00
0x404758 2 0.00
0x404760 2 0.00
0x404768 2 0.00
0x404be0 5 0.01
0x404be8 5 0.01
0x404bf0 5 0.01
0x404bf8 5 0.01
0x404c00 1 0.00
0x404c08 1 0.00
0x404c10 4 0.00
0x404c18 4 0.00
0x404c20 4 0.00
0x404c28 4 0.00
0x404c30 4 0.00
0x404c38 4 0.00
0x404c40 3 0.00
0x404c48 5 0.01
0x404c50 5 0.01
0x404c58 5 0.01
0x404c60 5 0.01
0x4054c0 2 0.00
0x4054c8 2 0.00
0x4054d0 2 0.00
0x4054d8 2 0.00
0x4054e0 2 0.00
0x4054e8 2 0.00
0x4054f0 2 0.00
0x4054f8 2 0.00
0x405500 2 0.00
0x405508 2 0.00
0x405510 2 0.00
0x405518 1 0.00
0x405520 1 0.00
0x405528 1 0.00
0x405530 1 0.00
0x405538 1 0.00
0x405540 1 0.00
0x405548 1 0.00
0x405550 1 0.00
0x405578 1 0.00
0x405580 1 0.00
0x4055c0 1 0.00
0x4055c8 1 0.00
0x4055d0 2 0.00
0x4055d8 2 0.00
0x4055e0 2 0.00
0x4055e8 2 0.00
0x4055f0 2 0.00
0x4056d0 2 0.00
0x4056d8 2 0.00
0x4056e0 2 0.00
0x4056e8 2 0.00
0x4056f0 2 0.00
0x405780 4 0.00
0x405788 4 0.00
0x405790 4 0.00
0x4057a0 4 0.00
0x4057a8 4 0.00
0x4057b0 4 0.00
0x4057b8 3 0.00
0x4057c0 3 0.00
0x4057c8 3 0.00
0x4057d0 1 0.00
0x4057f0 1 0.00
0x4057f8 1 0.00
0x405800 1 0.00
0x405808 1 0.00
0x405810 1 0.00
sim_num_insn_by_pc.end_dist

ld_text_base             0x00400000 # program text (code) segment base
ld_text_size                  22864 # program text (code) size in bytes
ld_data_base             0x10000000 # program initialized data segment base
ld_data_size                   4096 # program init'ed `.data' and uninit'ed `.bss' size in bytes
ld_stack_base            0x7fffc000 # program stack segment base (highest address in stack)
ld_stack_size                 16384 # program initial stack size
ld_prog_entry            0x00400140 # program entry point (initial PC)
ld_environ_base          0x7fff8000 # program environment base address address
ld_target_big_endian              0 # target executable endian-ness, non-zero if big endian
mem.page_count                   13 # total number of pages allocated
mem.page_mem                    52k # total size of memory pages allocated
mem.ptab_misses                6402 # total first level page table misses
mem.ptab_accesses            557502 # total page table accesses
mem.ptab_miss_rate           0.0115 # first level page table miss rate

+--------------------------------------------------------------+
| effective code range:         [0, fffffff8]                  |
| effective bpred count:        0                              |
| effective sim cycles:         0                              |
| effective bpred misses:       0                              |
| effective icache misses:      0                              |
+--------------------------------------------------------------+

